sat
(:added-eqs                       278
 :arith-eq-adapter                55
 :arith-bound-propagations-lp     3
 :arith-conflicts                 15
 :arith-diseq                     6
 :arith-fixed-eqs                 5
 :arith-grobner-calls             6
 :arith-horner-calls              2
 :arith-horner-cross-nested-forms 43
 :arith-lower                     39
 :arith-make-feasible             49
 :arith-max-columns               613
 :arith-max-rows                  227
 :arith-nla-add-bounds            5
 :arith-nla-lemmas                12
 :arith-nla-propagate-bounds      2
 :arith-nla-propagate-eq          223
 :arith-nra-calls                 1
 :arith-offset-eqs                5
 :arith-upper                     107
 :binary-propagations             231
 :conflicts                       1
 :decisions                       141
 :del-clause                      3
 :final-checks                    14
 :max-memory                      104.47
 :memory                          31.16
 :mk-bool-var                     432
 :mk-clause                       95
 :mk-clause-binary                936
 :nlsat-conflicts                 102
 :nlsat-propagations              2386
 :nlsat-stages                    1848
 :num-allocs                      959965872
 :num-checks                      1
 :propagations                    247
 :rlimit-count                    736014
 :sat-backjumps                   130
 :sat-conflicts                   130
 :sat-decisions                   378
 :sat-del-clause                  2
 :sat-elim-bool-vars-res          19998
 :sat-elim-literals               248
 :sat-minimized-lits              322
 :sat-mk-clause-2ary              80736
 :sat-mk-clause-3ary              34017
 :sat-mk-clause-nary              174008
 :sat-mk-var                      54864
 :sat-propagations-2ary           32891
 :sat-propagations-nary           22542
 :sat-scc-elim-binary             340
 :sat-scc-elim-vars               70
 :sat-subs-resolution             244
 :sat-subs-resolution-dyn         15
 :sat-subsumed                    16154
 :sat-units                       2
 :sls-arith-moves                 951
 :sls-ddfw-flips                  588.00
 :sls-ddfw-shifts                 2.00
 :sls-num-guided-search           2
 :time                            0.56
 :total-time                      0.56)
